unsat
(error "line 3840 column 17: model is not available")
(error "line 3841 column 17: model is not available")
(error "line 3842 column 18: model is not available")
(error "line 3843 column 19: model is not available")
(error "line 3844 column 19: model is not available")
(error "line 3845 column 19: model is not available")
(error "line 3846 column 19: model is not available")
(error "line 3847 column 19: model is not available")
(error "line 3848 column 19: model is not available")
(error "line 3849 column 19: model is not available")
(error "line 3850 column 19: model is not available")
(error "line 3851 column 19: model is not available")
(error "line 3852 column 19: model is not available")
(error "line 3853 column 18: model is not available")
(error "line 3854 column 19: model is not available")
(error "line 3855 column 19: model is not available")
(error "line 3856 column 19: model is not available")
(error "line 3857 column 19: model is not available")
(error "line 3858 column 19: model is not available")
(error "line 3859 column 19: model is not available")
(error "line 3860 column 19: model is not available")
(error "line 3861 column 19: model is not available")
(error "line 3862 column 19: model is not available")
(error "line 3863 column 19: model is not available")
(error "line 3864 column 18: model is not available")
(error "line 3865 column 19: model is not available")
(error "line 3866 column 19: model is not available")
(error "line 3867 column 19: model is not available")
(error "line 3868 column 19: model is not available")
(error "line 3869 column 19: model is not available")
(error "line 3870 column 19: model is not available")
(error "line 3871 column 19: model is not available")
(error "line 3872 column 19: model is not available")
(error "line 3873 column 19: model is not available")
(error "line 3874 column 19: model is not available")
(error "line 3875 column 18: model is not available")
(error "line 3876 column 19: model is not available")
(error "line 3877 column 19: model is not available")
(error "line 3878 column 19: model is not available")
(error "line 3879 column 19: model is not available")
(error "line 3880 column 19: model is not available")
(error "line 3881 column 19: model is not available")
(error "line 3882 column 19: model is not available")
(error "line 3883 column 19: model is not available")
(error "line 3884 column 19: model is not available")
(error "line 3885 column 19: model is not available")
(error "line 3886 column 18: model is not available")
(error "line 3887 column 19: model is not available")
(error "line 3888 column 19: model is not available")
(error "line 3889 column 19: model is not available")
(error "line 3890 column 19: model is not available")
(error "line 3891 column 19: model is not available")
(error "line 3892 column 19: model is not available")
(error "line 3893 column 19: model is not available")
(error "line 3894 column 19: model is not available")
(error "line 3895 column 19: model is not available")
(error "line 3896 column 19: model is not available")
(error "line 3897 column 18: model is not available")
(error "line 3898 column 19: model is not available")
(error "line 3899 column 19: model is not available")
(error "line 3900 column 19: model is not available")
(error "line 3901 column 19: model is not available")
(error "line 3902 column 19: model is not available")
(error "line 3903 column 19: model is not available")
(error "line 3904 column 19: model is not available")
(error "line 3905 column 19: model is not available")
(error "line 3906 column 19: model is not available")
(error "line 3907 column 19: model is not available")
(error "line 3908 column 18: model is not available")
(error "line 3909 column 19: model is not available")
(error "line 3910 column 19: model is not available")
(error "line 3911 column 19: model is not available")
(error "line 3912 column 19: model is not available")
(error "line 3913 column 19: model is not available")
(error "line 3914 column 19: model is not available")
(error "line 3915 column 19: model is not available")
(error "line 3916 column 19: model is not available")
(error "line 3917 column 19: model is not available")
(error "line 3918 column 19: model is not available")
(error "line 3919 column 18: model is not available")
(error "line 3920 column 19: model is not available")
(error "line 3921 column 19: model is not available")
(error "line 3922 column 19: model is not available")
(error "line 3923 column 19: model is not available")
(error "line 3924 column 19: model is not available")
(error "line 3925 column 19: model is not available")
(error "line 3926 column 19: model is not available")
(error "line 3927 column 19: model is not available")
(error "line 3928 column 19: model is not available")
(error "line 3929 column 18: model is not available")
(error "line 3930 column 18: model is not available")
(error "line 3931 column 17: model is not available")
(error "line 3932 column 18: model is not available")
(error "line 3933 column 18: model is not available")
(error "line 3934 column 18: model is not available")
(error "line 3935 column 18: model is not available")
(error "line 3936 column 18: model is not available")
(error "line 3937 column 18: model is not available")
(error "line 3938 column 18: model is not available")
(error "line 3939 column 18: model is not available")
(error "line 3940 column 18: model is not available")
(error "line 3941 column 18: model is not available")
(error "line 3942 column 17: model is not available")
(error "line 3943 column 18: model is not available")
(error "line 3944 column 18: model is not available")
(error "line 3945 column 18: model is not available")
(error "line 3946 column 18: model is not available")
(error "line 3947 column 18: model is not available")
(error "line 3948 column 18: model is not available")
(error "line 3949 column 18: model is not available")
(error "line 3950 column 18: model is not available")
(error "line 3951 column 18: model is not available")
(error "line 3952 column 18: model is not available")
(error "line 3953 column 17: model is not available")
(error "line 3954 column 18: model is not available")
(error "line 3955 column 18: model is not available")
(error "line 3956 column 18: model is not available")
(error "line 3957 column 18: model is not available")
(error "line 3958 column 18: model is not available")
(error "line 3959 column 18: model is not available")
(error "line 3960 column 18: model is not available")
(error "line 3961 column 18: model is not available")
(error "line 3962 column 18: model is not available")
(error "line 3963 column 18: model is not available")
(error "line 3964 column 17: model is not available")
(error "line 3965 column 18: model is not available")
(error "line 3966 column 18: model is not available")
(error "line 3967 column 18: model is not available")
(error "line 3968 column 18: model is not available")
(error "line 3969 column 18: model is not available")
(error "line 3970 column 18: model is not available")
(error "line 3971 column 18: model is not available")
(error "line 3972 column 18: model is not available")
(error "line 3973 column 18: model is not available")
(error "line 3974 column 18: model is not available")
(error "line 3975 column 17: model is not available")
(error "line 3976 column 18: model is not available")
(error "line 3977 column 18: model is not available")
(error "line 3978 column 18: model is not available")
(error "line 3979 column 18: model is not available")
(error "line 3980 column 18: model is not available")
(error "line 3981 column 18: model is not available")
(error "line 3982 column 18: model is not available")
(error "line 3983 column 18: model is not available")
(error "line 3984 column 18: model is not available")
(error "line 3985 column 18: model is not available")
(error "line 3986 column 17: model is not available")
(error "line 3987 column 18: model is not available")
(error "line 3988 column 18: model is not available")
(error "line 3989 column 18: model is not available")
(error "line 3990 column 18: model is not available")
(error "line 3991 column 18: model is not available")
(error "line 3992 column 18: model is not available")
(error "line 3993 column 18: model is not available")
(error "line 3994 column 18: model is not available")
(error "line 3995 column 18: model is not available")
(error "line 3996 column 18: model is not available")
(error "line 3997 column 17: model is not available")
(error "line 3998 column 18: model is not available")
(error "line 3999 column 18: model is not available")
(error "line 4000 column 18: model is not available")
(error "line 4001 column 18: model is not available")
(error "line 4002 column 18: model is not available")
(error "line 4003 column 18: model is not available")
(error "line 4004 column 18: model is not available")
(error "line 4005 column 18: model is not available")
(error "line 4006 column 18: model is not available")
(error "line 4007 column 18: model is not available")
(error "line 4008 column 17: model is not available")
(error "line 4009 column 18: model is not available")
(error "line 4010 column 18: model is not available")
(error "line 4011 column 18: model is not available")
(error "line 4012 column 18: model is not available")
(error "line 4013 column 18: model is not available")
(error "line 4014 column 18: model is not available")
(error "line 4015 column 18: model is not available")
(error "line 4016 column 18: model is not available")
(error "line 4017 column 18: model is not available")
(error "line 4018 column 18: model is not available")
(error "line 4019 column 38: model is not available")
(error "line 4020 column 45: model is not available")
(error "line 4021 column 38: model is not available")
(error "line 4022 column 45: model is not available")
(error "line 4023 column 46: model is not available")
(error "line 4024 column 53: model is not available")
(error "line 4025 column 40: model is not available")
(error "line 4026 column 47: model is not available")
(error "line 4027 column 38: model is not available")
(error "line 4028 column 45: model is not available")
(error "line 4029 column 38: model is not available")
(error "line 4030 column 45: model is not available")
(error "line 4031 column 41: model is not available")
(error "line 4032 column 48: model is not available")
(error "line 4033 column 41: model is not available")
(error "line 4034 column 48: model is not available")
(error "line 4035 column 37: model is not available")
(error "line 4036 column 44: model is not available")
(error "line 4037 column 42: model is not available")
(error "line 4038 column 42: model is not available")
(error "line 4039 column 38: model is not available")
(error "line 4040 column 38: model is not available")
(error "line 4041 column 38: model is not available")
(error "line 4042 column 41: model is not available")
(error "line 4043 column 48: model is not available")
(error "line 4044 column 41: model is not available")
(error "line 4045 column 48: model is not available")
(error "line 4046 column 41: model is not available")
(error "line 4047 column 48: model is not available")
(error "line 4048 column 45: model is not available")
(error "line 4049 column 45: model is not available")
(error "line 4050 column 45: model is not available")
(error "line 4051 column 45: model is not available")
(error "line 4052 column 49: model is not available")
(error "line 4053 column 49: model is not available")
(error "line 4054 column 68: model is not available")
(error "line 4055 column 68: model is not available")
(error "line 4056 column 68: model is not available")
(error "line 4057 column 68: model is not available")
(error "line 4058 column 68: model is not available")
(error "line 4059 column 75: model is not available")
(error "line 4060 column 75: model is not available")
(error "line 4061 column 75: model is not available")
(error "line 4062 column 75: model is not available")
(error "line 4063 column 48: model is not available")
(error "line 4064 column 49: model is not available")
(error "line 4065 column 49: model is not available")
(error "line 4066 column 49: model is not available")
(error "line 4067 column 53: model is not available")
(error "line 4068 column 38: model is not available")
(error "line 4069 column 38: model is not available")
(error "line 4070 column 38: model is not available")
(error "line 4071 column 38: model is not available")
(error "line 4072 column 38: model is not available")
(error "line 4073 column 38: model is not available")
(error "line 4074 column 38: model is not available")
(error "line 4075 column 38: model is not available")
(error "line 4076 column 44: model is not available")
(error "line 4077 column 44: model is not available")
(error "line 4078 column 44: model is not available")
(error "line 4079 column 52: model is not available")
(error "line 4080 column 52: model is not available")
(error "line 4081 column 52: model is not available")
(error "line 4082 column 52: model is not available")
(error "line 4083 column 52: model is not available")
(error "line 4084 column 52: model is not available")
(error "line 4085 column 39: model is not available")
(error "line 4086 column 39: model is not available")
(error "line 4087 column 39: model is not available")
(error "line 4088 column 39: model is not available")
(error "line 4089 column 39: model is not available")
(error "line 4090 column 39: model is not available")
(error "line 4091 column 39: model is not available")
(error "line 4092 column 39: model is not available")
(error "line 4093 column 16: model is not available")
(error "line 4094 column 18: model is not available")
(error "line 4095 column 25: model is not available")
(error "line 4096 column 19: model is not available")
(error "line 4097 column 26: model is not available")
(error "line 4098 column 18: model is not available")
(error "line 4099 column 25: model is not available")
(error "line 4100 column 18: model is not available")
(error "line 4101 column 18: model is not available")
(error "line 4102 column 25: model is not available")
(error "line 4103 column 18: model is not available")
(error "line 4104 column 25: model is not available")
(error "line 4105 column 18: model is not available")
(error "line 4106 column 18: model is not available")
(error "line 4107 column 25: model is not available")
(error "line 4108 column 18: model is not available")
(error "line 4109 column 25: model is not available")
(error "line 4110 column 18: model is not available")
(error "line 4111 column 17: model is not available")
(error "line 4112 column 19: model is not available")
(error "line 4113 column 26: model is not available")
(error "line 4114 column 19: model is not available")
(error "line 4115 column 26: model is not available")
(error "line 4116 column 19: model is not available")
(error "line 4117 column 19: model is not available")
(error "line 4118 column 26: model is not available")
(error "line 4119 column 19: model is not available")
(error "line 4120 column 26: model is not available")
(error "line 4121 column 19: model is not available")
(error "line 4122 column 19: model is not available")
(error "line 4123 column 26: model is not available")
(error "line 4124 column 36: model is not available")
(error "line 4125 column 29: model is not available")
(error "line 4126 column 31: model is not available")
(error "line 4127 column 38: model is not available")
(error "line 4128 column 31: model is not available")
(error "line 4129 column 38: model is not available")
(error "line 4130 column 23: model is not available")
(error "line 4131 column 30: model is not available")
(error "line 4132 column 23: model is not available")
(error "line 4133 column 30: model is not available")
(error "line 4134 column 23: model is not available")
(error "line 4135 column 30: model is not available")
(error "line 4136 column 23: model is not available")
(error "line 4137 column 30: model is not available")
(error "line 4138 column 23: model is not available")
(error "line 4139 column 30: model is not available")
(error "line 4140 column 51: model is not available")
(error "line 4141 column 53: model is not available")
(error "line 4142 column 51: model is not available")
(error "line 4143 column 52: model is not available")
(error "line 4144 column 53: model is not available")
(error "line 4145 column 53: model is not available")
(error "line 4146 column 51: model is not available")
(error "line 4147 column 52: model is not available")
(error "line 4148 column 52: model is not available")
(error "line 4149 column 52: model is not available")
(error "line 4150 column 52: model is not available")
(error "line 4151 column 53: model is not available")
(error "line 4152 column 52: model is not available")
(error "line 4153 column 52: model is not available")
(error "line 4154 column 52: model is not available")
(error "line 4155 column 53: model is not available")
(error "line 4156 column 52: model is not available")
(error "line 4157 column 52: model is not available")
(error "line 4158 column 53: model is not available")
(error "line 4159 column 53: model is not available")
(error "line 4160 column 52: model is not available")
(error "line 4161 column 53: model is not available")
(error "line 4162 column 53: model is not available")
(error "line 4163 column 52: model is not available")
(error "line 4164 column 51: model is not available")
(error "line 4165 column 52: model is not available")
(error "line 4166 column 52: model is not available")
(error "line 4167 column 52: model is not available")
(error "line 4168 column 51: model is not available")
(error "line 4169 column 56: model is not available")
(error "line 4170 column 56: model is not available")
(error "line 4171 column 57: model is not available")
(error "line 4172 column 57: model is not available")
(error "line 4173 column 57: model is not available")
(error "line 4174 column 56: model is not available")
(error "line 4175 column 57: model is not available")
(error "line 4176 column 56: model is not available")
(error "line 4177 column 56: model is not available")
(error "line 4178 column 56: model is not available")
(error "line 4179 column 56: model is not available")
(error "line 4180 column 56: model is not available")
(error "line 4181 column 31: model is not available")
(error "line 4182 column 38: model is not available")
(error "line 4183 column 31: model is not available")
(error "line 4184 column 38: model is not available")
(error "line 4185 column 31: model is not available")
(error "line 4186 column 38: model is not available")
(error "line 4187 column 31: model is not available")
(error "line 4188 column 38: model is not available")
(error "line 4189 column 31: model is not available")
(error "line 4190 column 38: model is not available")
(error "line 4191 column 36: model is not available")
(error "line 4192 column 46: model is not available")
(error "line 4193 column 46: model is not available")
(error "line 4194 column 54: model is not available")
(error "line 4195 column 54: model is not available")
(error "line 4196 column 54: model is not available")
(error "line 4197 column 40: model is not available")
(error "line 4198 column 40: model is not available")
(error "line 4199 column 41: model is not available")
(error "line 4200 column 41: model is not available")
(error "line 4201 column 50: model is not available")
(error "line 4202 column 50: model is not available")
(error "line 4203 column 43: model is not available")
(error "line 4204 column 43: model is not available")
(error "line 4205 column 36: model is not available")
(error "line 4206 column 36: model is not available")
(error "line 4207 column 36: model is not available")
(error "line 4208 column 36: model is not available")
(error "line 4209 column 36: model is not available")
(error "line 4210 column 36: model is not available")
(error "line 4211 column 36: model is not available")
(error "line 4212 column 36: model is not available")
(error "line 4213 column 34: model is not available")
(error "line 4214 column 36: model is not available")
(error "line 4215 column 43: model is not available")
(error "line 4216 column 36: model is not available")
(error "line 4217 column 43: model is not available")
(error "line 4218 column 36: model is not available")
(error "line 4219 column 36: model is not available")
(error "line 4220 column 36: model is not available")
(error "line 4221 column 36: model is not available")
(error "line 4222 column 36: model is not available")
(error "line 4223 column 43: model is not available")
(error "line 4224 column 36: model is not available")
(error "line 4225 column 43: model is not available")
(error "line 4226 column 41: model is not available")
(error "line 4227 column 36: model is not available")
(error "line 4228 column 37: model is not available")
(error "line 4229 column 36: model is not available")
(error "line 4230 column 36: model is not available")
(error "line 4231 column 36: model is not available")
(error "line 4232 column 36: model is not available")
(error "line 4233 column 36: model is not available")
(error "line 4234 column 36: model is not available")
(error "line 4235 column 36: model is not available")
(error "line 4236 column 36: model is not available")
(error "line 4237 column 37: model is not available")
(error "line 4238 column 36: model is not available")
(error "line 4239 column 36: model is not available")
(error "line 4240 column 36: model is not available")
(error "line 4241 column 36: model is not available")
(error "line 4242 column 36: model is not available")
(error "line 4243 column 36: model is not available")
(error "line 4244 column 36: model is not available")
(error "line 4245 column 28: model is not available")
(error "line 4246 column 38: model is not available")
(error "line 4247 column 38: model is not available")
(error "line 4248 column 36: model is not available")
(error "line 4249 column 36: model is not available")
(error "line 4250 column 36: model is not available")
(error "line 4251 column 22: model is not available")
(error "line 4252 column 29: model is not available")
(error "line 4253 column 22: model is not available")
(error "line 4254 column 29: model is not available")
(error "line 4255 column 22: model is not available")
(error "line 4256 column 29: model is not available")
(error "line 4257 column 22: model is not available")
(error "line 4258 column 29: model is not available")
(error "line 4259 column 30: model is not available")
(error "line 4260 column 36: model is not available")
(error "line 4261 column 36: model is not available")
(error "line 4262 column 30: model is not available")
(error "line 4263 column 18: model is not available")
(error "line 4264 column 20: model is not available")
(error "line 4265 column 27: model is not available")
(error "line 4266 column 21: model is not available")
(error "line 4267 column 21: model is not available")
(error "line 4268 column 20: model is not available")
(error "line 4269 column 27: model is not available")
(error "line 4270 column 20: model is not available")
(error "line 4271 column 27: model is not available")
(error "line 4272 column 20: model is not available")
(error "line 4273 column 27: model is not available")
(error "line 4274 column 20: model is not available")
(error "line 4275 column 20: model is not available")
(error "line 4276 column 20: model is not available")
(error "line 4277 column 20: model is not available")
(error "line 4278 column 27: model is not available")
(error "line 4279 column 20: model is not available")
(error "line 4280 column 27: model is not available")
(error "line 4282 column 10: model is not available")
(:added-eqs                      5769
 :arith-bound-propagations-cheap 3
 :arith-bound-propagations-lp    42
 :arith-lower                    31
 :arith-make-feasible            1
 :arith-max-columns              138
 :arith-max-rows                 97
 :arith-propagations             3
 :arith-upper                    37
 :array-ax1                      1
 :binary-propagations            23
 :bv-bit2core                    61472
 :conflicts                      1
 :eliminated-applications        24
 :eliminated-vars                46
 :max-memory                     33.41
 :memory                         11.86
 :mk-bool-var                    65638
 :mk-clause                      32
 :num-allocs                     60156964
 :num-checks                     1
 :propagations                   29
 :rlimit-count                   518521
 :time                           0.40
 :total-time                     0.42)

real	0m0.426s
user	0m0.415s
sys	0m0.010s
State: RE Run_time: 0.42827439308166504